SYSTEM = Find_Me
NWRITE = 3
ISTART = 60
ISPIN  = 1
INIWAV = 1

ENCUT  = 200
ENAUG  = 800
PREC   = Normal
NELM   = 40
NELMIN = 2
EDIFF  = 1E-3
EDIFFG = 1E-1

NSW    = 1000
IBRION = 2
ISIF   = 0
NBLOCK = 1
KBLOCK = 5
POTIM  = 1

ISMEAR = 0
SIGMA  = 0.2
ALGO   = Normal
LREAL  = A

LWAVE  = F
LCHARG = F
LVTOT  = F
LVHAR  = F
