NH3
1.00
5 0 0
0 5 0
0 0 5
N H
1 3
cart
0.00 0.00 0.00
{(a)} 0.00 0.00
{(b)} {(c)} 0.00
{(d)} {(e)} {(f)}
{{2 0.3 0.3 0.4 1000 1 192.168.1.100:6543
a 0.1 2
b -2 2
c 0.1 2
d -2 2
e -2 2
f 0.1 2
}}
pp,omega,phig,phig,times core url
双花括号后面全是注释
