H2O
1.00000
 15 0 0
 0 15 0
 0 0 15
O H
1 2
select
cart
0.00000      0.00000      0.00000 F F F
1.00000      0.00000      0.00000 T F F
-0.50000     0.70000      0.00000 T T F
