H2O
1.00
5.00 0.00 0.00
0.00 5.00 0.00
0.00 0.00 5.00
H O
2 1
S
C
0.00 0.00 0.00 F F F
1.00 0.00 0.00 T F F
-0.30 0.90 0.00 T T F
