H2O
1.00
5 0 0
0 5 0
0 0 5
O H
1 2
cart
0.00 0.00 0.00
{(a)} 0.00 0.00
{(a)*math.cos((t))} {(a)*math.sin((t))} 0.00
{{2 0.3 0.3 0.4 100
a 0 2
t 0 3.14
}}
pp,omega,phig,phig,times
双花括号后面全是注释
