NH3
1.00
5 0 0
0 5 0
0 0 5
N H
1 3
cart
0.00 0.00 0.00
{(a)} 0.00 0.00
{(b)} {(c)} 0.00
{(d)} {(e)} {(f)}

{{2 0.3 0.3 0.4 5
a 0.1 2
b 0.1 2
c 0.1 2
d 0.1 2
e 0.1 2
f 0.1 2
}}
pp,omega,phig,phig,times
双花括号后面全是注释
