B2H6
1.00
9 0 0
0 9 0
0 0 9
B H
2 6
cart
{-(Bd)} 0.00 0.00
{(Bd)} 0.00 0.00
{(H0x)} {(H0y)} {(H0z)}
{(H1x)} {(H1y)} {(H1z)}
{(H2x)} {(H2y)} {(H2z)}
{(H3x)} {(H3y)} {(H3z)}
{(H4x)} {(H4y)} {(H4z)}
{(H5x)} {(H5y)} {(H5z)}
{{2 0.3 0.3 0.4 100
Bd 0.1 1.5
H0x -2.5 2.5
H0y -2.5 2.5
H0z -2.5 2.5
H1x -2.5 2.5
H1y -2.5 2.5
H1z -2.5 2.5
H2x -2.5 2.5
H2y -2.5 2.5
H2z -2.5 2.5
H3x -2.5 2.5
H3y -2.5 2.5
H3z -2.5 2.5
H4x -2.5 2.5
H4y -2.5 2.5
H4z -2.5 2.5
H5x -2.5 2.5
H5y -2.5 2.5
H5z -2.5 2.5
}}
pp,omega,phig,phig,times
双花括号后面全是注释
