H2O
1.00
5 0 0
0 5 0
0 0 5
O H
1 2
cart
0.00 0.00 0.00
{a} {b} 0.00
{c} {d} 0.00
{{1 2 a b c d}}
