H2O
1.00
5 0 0
0 5 0
0 0 5
O H
1 2
cart
0.00 0.00 0.00
{(a)} 0.00 0.00
{(a)*math.cos((t))} {(a)*math.sin((t))} 0.00
{{2 0.3 0.3 0.4 5 2 192.168.1.100:6543
a 0.1 2
t 0.1 3.2
}}
pp,omega,phig,phig,times,core,url
双花括号后面全是注释
