H2O
1.00
5 0 0
0 5 0
0 0 5
O H
1 2
cart
0.00 0.00 0.00
{a} 0.00 0.00
{c} {d} 0.00
{{2 0.3 0.3 0.4 3
a -1 1
c -1 1
d -1 1
}}
pp,omega,phig,phig,times
双花括号后面全是注释
