H2O
1.00
5 0 0
0 5 0
0 0 5
O H
1 2
cart
0.00 0.00 0.00
0.59 -0.76 0.00
0.59 0.76 0.00
