H2O
1.00
5 0 0
0 5 0
0 0 5
O H
1 2
cart
0.00 0.00 0.00
{a} 0.00 0.00
{c} {d} 0.00
{{2 0.3 0.3 0.4 10
a -1 1
c -1 1
d -1 1
}}
#小数位数，omega，phig，phig，times
#后面是变量
#要改进的：
#{}内支持表达式
#支持一核多粒子