Ag13
1.00
9 0 0
0 9 0
0 0 9
Ag
13
cart
0.00 0.00 0.00
{(r)} {1.618*(r)} 0.00
{(r)} {-1.618*(r)} 0.00
{-(r)} {1.618*(r)} 0.00
{-(r)} {-1.618*(r)} 0.00
0.00 {(r)} {1.618*(r)}
0.00 {(r)} {-1.618*(r)}
0.00 {-(r)} {1.618*(r)}
0.00 {-(r)} {-1.618*(r)}
{1.618*(r)} 0.00 {(r)}
{-1.618*(r)} 0.00 {(r)}
{1.618*(r)} 0.00 {-(r)}
{-1.618*(r)} 0.00 {-(r)}
{{
precision       2
times           10
cores           1
omega           0.3
phig            0.4
phip            0.4
vars
r       0.3     3
}}
