H2O
1.00
5       0       0
0       5       0
0       0       5
H       O
2       1
cart
0.00    0.00    0.00
{(a)}   0.00    0.00
{(b)}   {(c)}   0.00
{{
precision       2
times           10
cores           1
omega           0.3
phig            0.4
phip            0.4
vars
a       0.1     2
b       -2      2
c       0.1     2
}}
